c Created with the Wolfram Language : www.wolfram.com
c 
p edge 80 471
e 1 4
e 1 5
e 2 5
e 3 5
e 1 9
e 8 9
e 2 10
e 7 12
e 4 13
e 10 14
e 13 14
e 1 15
e 2 15
e 7 15
e 14 15
e 14 16
e 12 17
e 15 17
e 4 18
e 8 18
e 12 18
e 6 19
e 14 19
e 18 19
e 5 20
e 6 20
e 7 20
e 8 20
e 19 20
e 10 21
e 12 21
e 18 21
e 7 22
e 15 22
e 9 23
e 10 23
e 11 23
e 19 23
e 22 23
e 6 24
e 10 24
e 11 24
e 12 24
e 19 24
e 20 24
e 21 24
e 13 25
e 23 25
e 24 26
e 1 27
e 2 27
e 10 27
e 17 27
e 18 27
e 21 27
e 26 27
e 15 28
e 26 28
e 1 29
e 2 29
e 18 29
e 23 29
e 25 29
e 3 30
e 7 30
e 9 30
e 21 30
e 23 30
e 25 30
e 18 31
e 19 31
e 20 31
e 29 31
e 1 32
e 7 32
e 14 32
e 18 32
e 31 32
e 14 33
e 31 33
e 6 34
e 7 34
e 12 34
e 17 34
e 19 34
e 23 34
e 25 34
e 29 34
e 2 35
e 4 35
e 13 35
e 25 35
e 31 35
e 34 35
e 9 36
e 15 36
e 17 36
e 19 36
e 20 36
e 26 36
e 30 36
e 14 37
e 18 37
e 25 37
e 33 37
e 2 38
e 13 38
e 25 38
e 30 38
e 34 38
e 6 39
e 31 39
e 34 39
e 3 40
e 10 40
e 22 40
e 32 40
e 39 40
e 20 41
e 25 41
e 26 41
e 32 41
e 4 42
e 12 42
e 33 42
e 34 42
e 36 42
e 38 42
e 23 43
e 4 44
e 24 44
e 28 44
e 42 44
e 3 45
e 14 45
e 16 45
e 26 45
e 28 45
e 30 45
e 34 45
e 38 45
e 15 46
e 16 46
e 17 46
e 22 46
e 27 46
e 28 46
e 32 46
e 38 46
e 44 46
e 7 47
e 9 47
e 19 47
e 21 47
e 22 47
e 23 47
e 30 47
e 31 47
e 40 47
e 43 47
e 45 47
e 2 48
e 10 48
e 12 48
e 18 48
e 20 48
e 22 48
e 30 48
e 36 48
e 37 48
e 38 48
e 41 48
e 46 48
e 5 49
e 18 49
e 20 49
e 29 49
e 43 49
e 45 49
e 22 50
e 27 50
e 29 50
e 32 50
e 34 50
e 46 50
e 47 50
e 49 50
e 7 51
e 11 51
e 15 51
e 19 51
e 21 51
e 39 51
e 42 51
e 49 51
e 2 52
e 11 52
e 20 52
e 28 52
e 35 52
e 51 52
e 4 53
e 10 53
e 11 53
e 13 53
e 18 53
e 20 53
e 1 54
e 12 54
e 18 54
e 26 54
e 31 54
e 48 54
e 52 54
e 5 55
e 14 55
e 29 55
e 34 55
e 39 55
e 45 55
e 53 55
e 3 56
e 8 56
e 19 56
e 30 56
e 41 56
e 45 56
e 54 56
e 55 56
e 5 57
e 14 57
e 19 57
e 24 57
e 39 57
e 44 57
e 9 58
e 41 58
e 51 58
e 52 58
e 10 59
e 26 59
e 33 59
e 43 59
e 44 59
e 45 59
e 47 59
e 55 59
e 4 60
e 8 60
e 11 60
e 17 60
e 18 60
e 20 60
e 23 60
e 44 60
e 52 60
e 56 60
e 57 60
e 22 61
e 25 61
e 34 61
e 41 61
e 47 61
e 50 61
e 10 62
e 13 62
e 15 62
e 16 62
e 20 62
e 25 62
e 40 62
e 48 62
e 55 62
e 56 62
e 57 62
e 11 63
e 16 63
e 17 63
e 32 63
e 33 63
e 35 63
e 40 63
e 45 63
e 50 63
e 15 64
e 20 64
e 23 64
e 30 64
e 31 64
e 35 64
e 45 64
e 49 64
e 51 64
e 1 65
e 2 65
e 8 65
e 20 65
e 23 65
e 25 65
e 28 65
e 40 65
e 43 65
e 46 65
e 57 65
e 2 66
e 8 66
e 23 66
e 25 66
e 36 66
e 48 66
e 53 66
e 62 66
e 65 66
e 3 67
e 17 67
e 19 67
e 34 67
e 42 67
e 46 67
e 51 67
e 54 67
e 2 68
e 4 68
e 17 68
e 49 68
e 54 68
e 2 69
e 5 69
e 7 69
e 10 69
e 20 69
e 21 69
e 38 69
e 54 69
e 61 69
e 63 69
e 66 69
e 6 70
e 7 70
e 13 70
e 20 70
e 29 70
e 45 70
e 48 70
e 51 70
e 54 70
e 56 70
e 64 70
e 66 70
e 10 71
e 13 71
e 17 71
e 19 71
e 20 71
e 24 71
e 32 71
e 33 71
e 37 71
e 40 71
e 41 71
e 42 71
e 45 71
e 51 71
e 53 71
e 54 71
e 56 71
e 61 71
e 67 71
e 68 71
e 69 71
e 13 72
e 31 72
e 36 72
e 37 72
e 47 72
e 63 72
e 14 73
e 17 73
e 21 73
e 25 73
e 52 73
e 55 73
e 62 73
e 69 73
e 1 74
e 8 74
e 9 74
e 11 74
e 15 74
e 19 74
e 28 74
e 32 74
e 39 74
e 44 74
e 45 74
e 53 74
e 59 74
e 68 74
e 11 75
e 14 75
e 22 75
e 24 75
e 37 75
e 39 75
e 42 75
e 47 75
e 49 75
e 58 75
e 59 75
e 60 75
e 66 75
e 74 75
e 8 76
e 21 76
e 22 76
e 25 76
e 53 76
e 55 76
e 66 76
e 73 76
e 6 77
e 11 77
e 22 77
e 25 77
e 33 77
e 43 77
e 44 77
e 51 77
e 61 77
e 69 77
e 74 77
e 2 78
e 4 78
e 8 78
e 12 78
e 14 78
e 27 78
e 39 78
e 43 78
e 58 78
e 73 78
e 10 79
e 18 79
e 22 79
e 23 79
e 24 79
e 27 79
e 33 79
e 38 79
e 40 79
e 41 79
e 42 79
e 46 79
e 49 79
e 73 79
e 3 80
e 9 80
e 14 80
e 18 80
e 21 80
e 26 80
e 34 80
e 37 80
e 50 80
e 53 80
e 55 80
e 56 80
e 66 80
e 67 80
e 72 80
e 74 80
